c generated by sgen
p cnf 77 164
-2 -3 -4 0
-1 -3 -4 0
-1 -2 -4 0
-1 -2 -3 0
-6 -7 -8 0
-5 -7 -8 0
-5 -6 -8 0
-5 -6 -7 0
-10 -11 -12 0
-9 -11 -12 0
-9 -10 -12 0
-9 -10 -11 0
-14 -15 -16 0
-13 -15 -16 0
-13 -14 -16 0
-13 -14 -15 0
-18 -19 -20 0
-17 -19 -20 0
-17 -18 -20 0
-17 -18 -19 0
-22 -23 -24 0
-21 -23 -24 0
-21 -22 -24 0
-21 -22 -23 0
-26 -27 -28 0
-25 -27 -28 0
-25 -26 -28 0
-25 -26 -27 0
-30 -31 -32 0
-29 -31 -32 0
-29 -30 -32 0
-29 -30 -31 0
-34 -35 -36 0
-33 -35 -36 0
-33 -34 -36 0
-33 -34 -35 0
-38 -39 -40 0
-37 -39 -40 0
-37 -38 -40 0
-37 -38 -39 0
-42 -43 -44 0
-41 -43 -44 0
-41 -42 -44 0
-41 -42 -43 0
-46 -47 -48 0
-45 -47 -48 0
-45 -46 -48 0
-45 -46 -47 0
-50 -51 -52 0
-49 -51 -52 0
-49 -50 -52 0
-49 -50 -51 0
-54 -55 -56 0
-53 -55 -56 0
-53 -54 -56 0
-53 -54 -55 0
-58 -59 -60 0
-57 -59 -60 0
-57 -58 -60 0
-57 -58 -59 0
-62 -63 -64 0
-61 -63 -64 0
-61 -62 -64 0
-61 -62 -63 0
-66 -67 -68 0
-65 -67 -68 0
-65 -66 -68 0
-65 -66 -67 0
-70 -71 -72 0
-69 -71 -72 0
-69 -70 -72 0
-69 -70 -71 0
-73 -74 -75 0
-73 -74 -76 0
-73 -74 -77 0
-73 -75 -76 0
-73 -75 -77 0
-73 -76 -77 0
-74 -75 -76 0
-74 -75 -77 0
-74 -76 -77 0
-75 -76 -77 0
39 70 50 0
53 70 50 0
53 39 50 0
53 39 70 0
54 32 61 0
45 32 61 0
45 54 61 0
45 54 32 0
66 26 11 0
63 26 11 0
63 66 11 0
63 66 26 0
3 28 16 0
77 28 16 0
77 3 16 0
77 3 28 0
37 41 59 0
15 41 59 0
15 37 59 0
15 37 41 0
36 72 60 0
73 72 60 0
73 36 60 0
73 36 72 0
33 20 27 0
38 20 27 0
38 33 27 0
38 33 20 0
14 62 76 0
49 62 76 0
49 14 76 0
49 14 62 0
6 17 51 0
12 17 51 0
12 6 51 0
12 6 17 0
18 57 21 0
56 57 21 0
56 18 21 0
56 18 57 0
4 55 10 0
35 55 10 0
35 4 10 0
35 4 55 0
47 71 19 0
67 71 19 0
67 47 19 0
67 47 71 0
29 2 58 0
68 2 58 0
68 29 58 0
68 29 2 0
74 23 44 0
65 23 44 0
65 74 44 0
65 74 23 0
8 13 34 0
31 13 34 0
31 8 34 0
31 8 13 0
48 43 25 0
52 43 25 0
52 48 25 0
52 48 43 0
40 75 46 0
5 75 46 0
5 40 46 0
5 40 75 0
9 30 22 0
42 30 22 0
42 9 22 0
42 9 30 0
7 64 69 0
7 64 24 0
7 64 1 0
7 69 24 0
7 69 1 0
7 24 1 0
64 69 24 0
64 69 1 0
64 24 1 0
69 24 1 0
